min: c;

c = 3.11765216784293 * u1_t7_h4 + 3.50892018854615 * u1_t7_h5 + 3.89134475170996 * u1_t5_h6 + 3.89134475170996 * u1_t7_h6 + 4.49537132046714 * u1_t5_h7 + 4.49537132046714 * u1_t7_h7 + 4.49537132046714 * u1_t9_h7 + 5.27101404592074 * u1_t5_h8 + 5.27101404592074 * u1_t7_h8 + 5.27101404592074 * u1_t9_h8 + 5.27101404592074 * u1_t10_h8 + 5.05751815955091 * u1_t5_h9 + 5.05751815955091 * u1_t7_h9 + 5.05751815955091 * u1_t9_h9 + 5.05751815955091 * u1_t10_h9 + 5.07686193212754 * u1_t5_h10 + 5.07686193212754 * u1_t7_h10 + 5.07686193212754 * u1_t9_h10 + 5.07686193212754 * u1_t10_h10 + 3.94057501369126 * u1_t5_h11 + 3.94057501369126 * u1_t9_h11 + 3.94057501369126 * u1_t10_h11 + 6.07305774432699 * u1_t4_h12 + 6.07305774432699 * u1_t5_h12 + 6.07305774432699 * u1_t8_h12 + 6.07305774432699 * u1_t9_h12 + 6.07305774432699 * u1_t10_h12 + 4.37092739346687 * u1_t4_h13 + 4.37092739346687 * u1_t8_h13 + 4.37092739346687 * u1_t9_h13 + 4.37092739346687 * u1_t10_h13 + 5.19649107744791 * u1_t4_h14 + 5.19649107744791 * u1_t8_h14 + 5.19649107744791 * u1_t9_h14 + 5.19649107744791 * u1_t10_h14 + 6.35478031825008 * u1_t4_h15 + 6.35478031825008 * u1_t8_h15 + 6.13758066110225 * u1_t4_h16 + 6.13758066110225 * u1_t8_h16 + 6.13345458629035 * u1_t4_h17 + 6.13345458629035 * u1_t8_h17 + 6.57133863085795 * u1_t2_h18 + 6.57133863085795 * u1_t4_h18 + 6.57133863085795 * u1_t6_h18 + 6.57133863085795 * u1_t8_h18 + 6.07488798299281 * u1_t2_h19 + 6.07488798299281 * u1_t3_h19 + 6.07488798299281 * u1_t4_h19 + 6.07488798299281 * u1_t6_h19 + 5.54309091825746 * u1_t1_h20 + 5.54309091825746 * u1_t2_h20 + 5.54309091825746 * u1_t3_h20 + 5.54309091825746 * u1_t4_h20 + 5.54309091825746 * u1_t6_h20 + 4.94744369148809 * u1_t1_h21 + 4.94744369148809 * u1_t2_h21 + 4.94744369148809 * u1_t3_h21 + 5.79531401111106 * u1_t1_h22 + 5.79531401111106 * u1_t2_h22 + 5.58604317831018 * u1_t1_h23 + 5.58604317831018 * u1_t2_h23;
0 <= u1_t1_h20 <= 1;
0 <= u1_t1_h21 <= 1;
0 <= u1_t1_h22 <= 1;
0 <= u1_t1_h23 <= 1;
u1_t1_h20 + u1_t1_h21 + u1_t1_h22 + u1_t1_h23 = 1;
0 <= u1_t2_h18 <= 1;
0 <= u1_t2_h19 <= 1;
0 <= u1_t2_h20 <= 1;
0 <= u1_t2_h21 <= 1;
0 <= u1_t2_h22 <= 1;
0 <= u1_t2_h23 <= 1;
u1_t2_h18 + u1_t2_h19 + u1_t2_h20 + u1_t2_h21 + u1_t2_h22 + u1_t2_h23 = 2;
0 <= u1_t3_h19 <= 1;
0 <= u1_t3_h20 <= 1;
0 <= u1_t3_h21 <= 1;
u1_t3_h19 + u1_t3_h20 + u1_t3_h21 = 1;
0 <= u1_t4_h12 <= 1;
0 <= u1_t4_h13 <= 1;
0 <= u1_t4_h14 <= 1;
0 <= u1_t4_h15 <= 1;
0 <= u1_t4_h16 <= 1;
0 <= u1_t4_h17 <= 1;
0 <= u1_t4_h18 <= 1;
0 <= u1_t4_h19 <= 1;
0 <= u1_t4_h20 <= 1;
u1_t4_h12 + u1_t4_h13 + u1_t4_h14 + u1_t4_h15 + u1_t4_h16 + u1_t4_h17 + u1_t4_h18 + u1_t4_h19 + u1_t4_h20 = 3;
0 <= u1_t5_h6 <= 1;
0 <= u1_t5_h7 <= 1;
0 <= u1_t5_h8 <= 1;
0 <= u1_t5_h9 <= 1;
0 <= u1_t5_h10 <= 1;
0 <= u1_t5_h11 <= 1;
0 <= u1_t5_h12 <= 1;
u1_t5_h6 + u1_t5_h7 + u1_t5_h8 + u1_t5_h9 + u1_t5_h10 + u1_t5_h11 + u1_t5_h12 = 3;
0 <= u1_t6_h18 <= 1;
0 <= u1_t6_h19 <= 1;
0 <= u1_t6_h20 <= 1;
u1_t6_h18 + u1_t6_h19 + u1_t6_h20 = 2;
0 <= u1_t7_h4 <= 1;
0 <= u1_t7_h5 <= 1;
0 <= u1_t7_h6 <= 1;
0 <= u1_t7_h7 <= 1;
0 <= u1_t7_h8 <= 1;
0 <= u1_t7_h9 <= 1;
0 <= u1_t7_h10 <= 1;
u1_t7_h4 + u1_t7_h5 + u1_t7_h6 + u1_t7_h7 + u1_t7_h8 + u1_t7_h9 + u1_t7_h10 = 2;
0 <= u1_t8_h12 <= 1;
0 <= u1_t8_h13 <= 1;
0 <= u1_t8_h14 <= 1;
0 <= u1_t8_h15 <= 1;
0 <= u1_t8_h16 <= 1;
0 <= u1_t8_h17 <= 1;
0 <= u1_t8_h18 <= 1;
u1_t8_h12 + u1_t8_h13 + u1_t8_h14 + u1_t8_h15 + u1_t8_h16 + u1_t8_h17 + u1_t8_h18 = 2;
0 <= u1_t9_h7 <= 1;
0 <= u1_t9_h8 <= 1;
0 <= u1_t9_h9 <= 1;
0 <= u1_t9_h10 <= 1;
0 <= u1_t9_h11 <= 1;
0 <= u1_t9_h12 <= 1;
0 <= u1_t9_h13 <= 1;
0 <= u1_t9_h14 <= 1;
u1_t9_h7 + u1_t9_h8 + u1_t9_h9 + u1_t9_h10 + u1_t9_h11 + u1_t9_h12 + u1_t9_h13 + u1_t9_h14 = 3;
0 <= u1_t10_h8 <= 1;
0 <= u1_t10_h9 <= 1;
0 <= u1_t10_h10 <= 1;
0 <= u1_t10_h11 <= 1;
0 <= u1_t10_h12 <= 1;
0 <= u1_t10_h13 <= 1;
0 <= u1_t10_h14 <= 1;
u1_t10_h8 + u1_t10_h9 + u1_t10_h10 + u1_t10_h11 + u1_t10_h12 + u1_t10_h13 + u1_t10_h14 = 3;
